NAME : CC40.1358494.tour
COMMENT : Cost = 0_1358494
COMMENT : Found by LKH [Keld Helsgaun] Sun Apr 23 15:14:36 2017
TYPE : TOUR
DIMENSION : 83
TOUR_SECTION
1
41
32
72
81
13
53
5
45
30
70
4
44
6
46
27
67
21
61
10
50
24
2
64
42
82
7
47
18
38
78
58
28
68
14
54
3
43
8
48
20
60
37
77
22
62
29
31
69
71
9
49
83
33
73
36
76
35
75
16
56
11
51
23
63
15
55
40
80
12
52
17
26
57
66
25
65
19
39
59
34
79
74
-1
EOF
